max: 100f0102 - 10q1 - 20q2;
0y0102 + 0z0102 <= 3q1 + 0q2;
1y0102 + 1z0102 <= 2q1 + 6q2;
0y0102 + 0z0102 <= 1q1 + 2q2;

f0102 <= 4;
f0102 >= -4;

y0102 <= 4;
y0102 >= 0;
z0102 <= 4;
z0102 >= 0;


f0102 = y0102 - z0102;

q1 >= 0;
q2 >= 0;
